(set-info :smt-lib-version 2.6)
(set-logic ABVFP)
(set-info :source |
Generated by the tool Ultimate Automizer [1,2] which implements
an automata theoretic approach [3] to software verification.

This SMT script belongs to a set of SMT scripts that was generated by
applying Ultimate Automizer to benchmarks [4] from the SV-COMP 2023 [5,6].
This script may not contain all SMT commands that Ultimate Automizer
issued. In order to meet the restrictions for SMT-COMP benchmarks 
we dropped the commands for getting values (resp. models), 
unsatisfiable cores, and interpolants.

2023-03-21, Matthias Heizmann (heizmann@informatik.uni-freiburg.de)

[1] https://ultimate.informatik.uni-freiburg.de/automizer/
[2] Matthias Heizmann, Max Barth, Daniel Dietsch, Leonard Fichtner,
     Jochen Hoenicke, Dominik Klumpp, Mehdi Naouar, Tanja Schindler,
     Frank Schüssele, Andreas Podelski: Ultimate Automizer and the
     CommuHash Normal Form (Competition Contribution). TACAS 2023
[3] Matthias Heizmann, Jochen Hoenicke, Andreas Podelski: Software Model
     Checking for People Who Love Automata. CAV 2013
[4] https://github.com/sosy-lab/sv-benchmarks
[5] Dirk Beyer: Competition on Software Verification and
     Witness Validation: SV-COMP 2023.  TACAS 2023
[6] https://sv-comp.sosy-lab.org/2023/
|)
(set-info :license "https://creativecommons.org/licenses/by/4.0/")
(set-info :category "industrial")
(set-info :status unknown)
(declare-fun ~__codecvt_result~0~__codecvt_ok () (_ BitVec 32))
(declare-fun ~__codecvt_result~0~__codecvt_partial () (_ BitVec 32))
(declare-fun ~__codecvt_result~0~__codecvt_error () (_ BitVec 32))
(declare-fun ~__codecvt_result~0~__codecvt_noconv () (_ BitVec 32))
(declare-fun ~unnamed0~0~P_ALL () (_ BitVec 32))
(declare-fun ~unnamed0~0~P_PID () (_ BitVec 32))
(declare-fun ~unnamed0~0~P_PGID () (_ BitVec 32))
(declare-fun c_currentRoundingMode_primed () RoundingMode)
(declare-fun |c_old(~head~0.base)| () (_ BitVec 64))
(declare-fun c_~head~0.base_primed () (_ BitVec 64))
(declare-fun |c_old(~head~0.offset)| () (_ BitVec 64))
(declare-fun c_~head~0.offset_primed () (_ BitVec 64))
(declare-fun |c_#NULL.base_primed| () (_ BitVec 64))
(declare-fun |c_#NULL.offset_primed| () (_ BitVec 64))
(declare-fun |c_#valid| () (Array (_ BitVec 64) (_ BitVec 1)))
(declare-fun |c_#length| () (Array (_ BitVec 64) (_ BitVec 64)))
(declare-fun |c_old(#memory_$Pointer$.base)| () (Array (_ BitVec 64) (Array (_ BitVec 64) (_ BitVec 64))))
(declare-fun |c_#memory_$Pointer$.base| () (Array (_ BitVec 64) (Array (_ BitVec 64) (_ BitVec 64))))
(declare-fun |c_old(#memory_$Pointer$.offset)| () (Array (_ BitVec 64) (Array (_ BitVec 64) (_ BitVec 64))))
(declare-fun |c_#memory_$Pointer$.offset| () (Array (_ BitVec 64) (Array (_ BitVec 64) (_ BitVec 64))))
(declare-fun |c_#memory_int| () (Array (_ BitVec 64) (Array (_ BitVec 64) (_ BitVec 8))))
(declare-fun |c_#StackHeapBarrier| () (_ BitVec 64))
(assert (= ~__codecvt_result~0~__codecvt_ok (_ bv0 32)))
(assert (= ~__codecvt_result~0~__codecvt_partial (_ bv1 32)))
(assert (= (_ bv2 32) ~__codecvt_result~0~__codecvt_error))
(assert (= ~__codecvt_result~0~__codecvt_noconv (_ bv3 32)))
(assert (= ~unnamed0~0~P_ALL (_ bv0 32)))
(assert (= ~unnamed0~0~P_PID (_ bv1 32)))
(assert (= (_ bv2 32) ~unnamed0~0~P_PGID))
(assert (let ((.cse0 (select |c_#memory_int| (_ bv1 64)))) (and (= (_ bv16 64) (select |c_#length| (_ bv2 64))) (bvult (_ bv0 64) |c_#StackHeapBarrier|) (= c_currentRoundingMode_primed roundNearestTiesToEven) (= (_ bv0 64) c_~head~0.offset_primed) (= (_ bv0 64) c_~head~0.base_primed) (= (_ bv0 1) (select |c_#valid| (_ bv0 64))) (= (_ bv0 64) |c_#NULL.base_primed|) (= (_ bv0 1) (bvadd (select |c_#valid| (_ bv1 64)) (_ bv1 1))) (= (_ bv48 8) (select .cse0 (_ bv0 64))) (= (select .cse0 (_ bv1 64)) (_ bv0 8)) (= (bvadd (select |c_#valid| (_ bv2 64)) (_ bv1 1)) (_ bv0 1)) (= (_ bv2 64) (select |c_#length| (_ bv1 64))) (= (_ bv0 64) |c_#NULL.offset_primed|))))
(assert (not (and (= (_ bv0 64) c_~head~0.offset_primed) (exists ((v_arrayElimArr_7 (Array (_ BitVec 64) (_ BitVec 64)))) (and (= |c_old(~head~0.base)| (select v_arrayElimArr_7 (_ bv4 64))) (= (store |c_old(#memory_$Pointer$.base)| c_~head~0.base_primed v_arrayElimArr_7) |c_#memory_$Pointer$.base|))) (exists ((v_arrayElimArr_6 (Array (_ BitVec 64) (_ BitVec 64)))) (and (= |c_#memory_$Pointer$.offset| (store |c_old(#memory_$Pointer$.offset)| c_~head~0.base_primed v_arrayElimArr_6)) (= (select v_arrayElimArr_6 (_ bv4 64)) |c_old(~head~0.offset)|))))))
(check-sat)
(exit)
